50
100
100
99
99
97
96
95
87
87
87
86
84
82
80
80
80
76
75
74
71
68
67
63
62
60
52
52
52
48
44
44
43
43
37
34
33
31
29
28
25
21
20
17
16
13
11
9
6
5
4
3
